p tw 196 38221 2 
1 3 
1 4 
1 5 
1 6 
1 7 
1 8 
1 9 
1 10 
1 11 
1 12 
1 13 
1 14 
1 15 
1 18 
1 29 
1 42 
1 43 
1 49 
1 57 
1 65 
1 71 
1 75 
1 85 
1 96 
1 99 
1 108 
1 113 
1 118 
1 127 
1 134 
1 141 
1 143 
1 155 
1 167 
1 169 
1 179 
1 183 
1 184 
2 3 
2 4 
2 5 
2 6 
2 7 
2 8 
2 9 
2 10 
2 11 
2 12 
2 13 
2 14 
2 16 
2 25 
2 30 
2 36 
2 44 
2 47 
2 58 
2 68 
2 72 
2 84 
2 86 
2 94 
2 100 
2 101 
2 114 
2 119 
2 127 
2 128 
2 142 
2 146 
2 156 
2 158 
2 170 
2 181 
2 184 
2 191 
3 4 
3 5 
3 6 
3 7 
3 8 
3 9 
3 10 
3 11 
3 12 
3 13 
3 14 
3 17 
3 21 
3 30 
3 31 
3 45 
3 56 
3 59 
3 62 
3 73 
3 83 
3 87 
3 92 
3 99 
3 101 
3 115 
3 124 
3 129 
3 136 
3 143 
3 144 
3 157 
3 165 
3 171 
3 177 
3 185 
3 187 
4 5 
4 6 
4 7 
4 8 
4 9 
4 10 
4 11 
4 12 
4 13 
4 14 
4 18 
4 24 
4 29 
4 32 
4 46 
4 51 
4 60 
4 69 
4 74 
4 77 
4 88 
4 95 
4 102 
4 106 
4 116 
4 126 
4 128 
4 130 
4 144 
4 152 
4 158 
4 160 
4 172 
4 173 
4 185 
4 186 
5 6 
5 7 
5 8 
5 9 
5 10 
5 11 
5 12 
5 13 
5 14 
5 19 
5 28 
5 31 
5 33 
5 44 
5 47 
5 57 
5 61 
5 75 
5 82 
5 89 
5 91 
5 103 
5 107 
5 116 
5 117 
5 131 
5 139 
5 145 
5 151 
5 159 
5 162 
5 173 
5 178 
5 187 
5 188 
6 7 
6 8 
6 9 
6 10 
6 11 
6 12 
6 13 
6 14 
6 20 
6 26 
6 34 
6 35 
6 46 
6 48 
6 62 
6 64 
6 76 
6 79 
6 90 
6 97 
6 103 
6 104 
6 118 
6 123 
6 129 
6 132 
6 142 
6 146 
6 155 
6 160 
6 174 
6 182 
6 188 
6 192 
7 8 
7 9 
7 10 
7 11 
7 12 
7 13 
7 14 
7 21 
7 22 
7 34 
7 35 
7 49 
7 53 
7 59 
7 63 
7 72 
7 77 
7 85 
7 91 
7 105 
7 112 
7 119 
7 125 
7 133 
7 135 
7 147 
7 150 
7 159 
7 161 
7 172 
7 175 
7 189 
7 194 
8 9 
8 10 
8 11 
8 12 
8 13 
8 14 
8 22 
8 27 
8 36 
8 40 
8 50 
8 52 
8 64 
8 67 
8 76 
8 78 
8 92 
8 98 
8 105 
8 106 
8 120 
8 121 
8 131 
8 134 
8 141 
8 148 
8 156 
8 162 
8 171 
8 176 
8 186 
8 190 
9 10 
9 11 
9 12 
9 13 
9 14 
9 20 
9 23 
9 37 
9 38 
9 51 
9 55 
9 61 
9 65 
9 74 
9 79 
9 87 
9 93 
9 107 
9 109 
9 114 
9 121 
9 133 
9 135 
9 149 
9 154 
9 163 
9 166 
9 176 
9 177 
9 183 
9 191 
10 11 
10 12 
10 13 
10 14 
10 17 
10 24 
10 33 
10 38 
10 43 
10 52 
10 66 
10 70 
10 80 
10 81 
10 88 
10 94 
10 100 
10 108 
10 120 
10 122 
10 136 
10 138 
10 149 
10 150 
10 161 
10 164 
10 174 
10 178 
10 192 
10 195 
11 12 
11 13 
11 14 
11 23 
11 25 
11 39 
11 41 
11 48 
11 53 
11 60 
11 67 
11 73 
11 81 
11 86 
11 95 
11 109 
11 110 
11 113 
11 123 
11 137 
11 140 
11 145 
11 151 
11 164 
11 165 
11 175 
11 179 
11 190 
11 193 
12 13 
12 14 
12 16 
12 26 
12 37 
12 40 
12 50 
12 54 
12 63 
12 68 
12 80 
12 82 
12 89 
12 96 
12 102 
12 110 
12 115 
12 124 
12 132 
12 138 
12 152 
12 153 
12 166 
12 168 
12 169 
12 180 
12 193 
12 194 
13 14 
13 15 
13 27 
13 39 
13 41 
13 54 
13 55 
13 66 
13 69 
13 78 
13 83 
13 93 
13 97 
13 104 
13 111 
13 117 
13 125 
13 130 
13 139 
13 147 
13 153 
13 157 
13 167 
13 170 
13 181 
13 195 
13 196 
14 19 
14 28 
14 32 
14 42 
14 45 
14 56 
14 58 
14 70 
14 71 
14 84 
14 90 
14 98 
14 111 
14 112 
14 122 
14 126 
14 137 
14 140 
14 148 
14 154 
14 163 
14 168 
14 180 
14 182 
14 189 
14 196 
15 16 
15 17 
15 18 
15 19 
15 20 
15 21 
15 22 
15 23 
15 24 
15 25 
15 26 
15 27 
15 28 
15 29 
15 39 
15 43 
15 54 
15 57 
15 66 
15 71 
15 78 
15 85 
15 93 
15 99 
15 104 
15 113 
15 117 
15 127 
15 130 
15 141 
15 147 
15 155 
15 157 
15 169 
15 170 
15 183 
15 196 
16 17 
16 18 
16 19 
16 20 
16 21 
16 22 
16 23 
16 24 
16 25 
16 26 
16 27 
16 28 
16 30 
16 37 
16 44 
16 50 
16 58 
16 63 
16 72 
16 80 
16 86 
16 89 
16 100 
16 102 
16 114 
16 115 
16 128 
16 132 
16 142 
16 153 
16 156 
16 168 
16 169 
16 170 
16 184 
16 193 
17 18 
17 19 
17 20 
17 21 
17 22 
17 23 
17 24 
17 25 
17 26 
17 27 
17 28 
17 31 
17 33 
17 43 
17 45 
17 59 
17 70 
17 73 
17 81 
17 87 
17 88 
17 100 
17 101 
17 115 
17 120 
17 129 
17 138 
17 143 
17 149 
17 157 
17 161 
17 171 
17 174 
17 185 
17 195 
18 19 
18 20 
18 21 
18 22 
18 23 
18 24 
18 25 
18 26 
18 27 
18 28 
18 32 
18 42 
18 46 
18 49 
18 60 
18 65 
18 74 
18 75 
18 88 
18 96 
18 102 
18 108 
18 116 
18 118 
18 130 
18 134 
18 143 
18 144 
18 158 
18 167 
18 172 
18 179 
18 184 
18 186 
19 20 
19 21 
19 22 
19 23 
19 24 
19 25 
19 26 
19 27 
19 28 
19 32 
19 33 
19 45 
19 47 
19 58 
19 61 
19 71 
19 75 
19 89 
19 90 
19 103 
19 111 
19 117 
19 122 
19 131 
19 137 
19 145 
19 148 
19 159 
19 163 
19 173 
19 180 
19 187 
19 189 
20 21 
20 22 
20 23 
20 24 
20 25 
20 26 
20 27 
20 28 
20 34 
20 38 
20 48 
20 55 
20 61 
20 62 
20 74 
20 76 
20 87 
20 90 
20 104 
20 109 
20 114 
20 118 
20 132 
20 133 
20 146 
20 154 
20 160 
20 166 
20 174 
20 176 
20 183 
20 188 
21 22 
21 23 
21 24 
21 25 
21 26 
21 27 
21 28 
21 30 
21 35 
21 49 
21 56 
21 62 
21 63 
21 77 
21 83 
21 91 
21 92 
21 99 
21 105 
21 119 
21 124 
21 133 
21 136 
21 144 
21 147 
21 161 
21 165 
21 175 
21 177 
21 187 
21 189 
22 23 
22 24 
22 25 
22 26 
22 27 
22 28 
22 34 
22 36 
22 50 
22 53 
22 59 
22 64 
22 72 
22 78 
22 85 
22 92 
22 106 
22 112 
22 120 
22 125 
22 134 
22 135 
22 148 
22 150 
22 159 
22 162 
22 172 
22 176 
22 190 
22 194 
23 24 
23 25 
23 26 
23 27 
23 28 
23 37 
23 41 
23 48 
23 51 
23 60 
23 65 
23 73 
23 79 
23 86 
23 93 
23 107 
23 110 
23 113 
23 121 
23 135 
23 140 
23 145 
23 149 
23 163 
23 164 
23 175 
23 177 
23 190 
23 191 
24 25 
24 26 
24 27 
24 28 
24 29 
24 38 
24 51 
24 52 
24 66 
24 69 
24 77 
24 80 
24 94 
24 95 
24 106 
24 108 
24 122 
24 126 
24 128 
24 136 
24 150 
24 152 
24 160 
24 164 
24 173 
24 178 
24 185 
24 192 
25 26 
25 27 
25 28 
25 36 
25 39 
25 47 
25 53 
25 67 
25 68 
25 81 
25 84 
25 94 
25 95 
25 101 
25 109 
25 119 
25 123 
25 127 
25 137 
25 146 
25 151 
25 158 
25 165 
25 179 
25 181 
25 191 
25 193 
26 27 
26 28 
26 35 
26 40 
26 46 
26 54 
26 64 
26 68 
26 79 
26 82 
26 96 
26 97 
26 103 
26 110 
26 123 
26 124 
26 129 
26 138 
26 142 
26 152 
26 155 
26 166 
26 180 
26 182 
26 192 
26 194 
27 28 
27 40 
27 41 
27 52 
27 55 
27 67 
27 69 
27 76 
27 83 
27 97 
27 98 
27 105 
27 111 
27 121 
27 125 
27 131 
27 139 
27 141 
27 153 
27 156 
27 167 
27 171 
27 181 
27 186 
27 195 
28 31 
28 42 
28 44 
28 56 
28 57 
28 70 
28 82 
28 84 
28 91 
28 98 
28 107 
28 112 
28 116 
28 126 
28 139 
28 140 
28 151 
28 154 
28 162 
28 168 
28 178 
28 182 
28 188 
28 196 
29 30 
29 31 
29 32 
29 33 
29 34 
29 35 
29 36 
29 37 
29 38 
29 39 
29 40 
29 41 
29 42 
29 43 
29 51 
29 57 
29 69 
29 71 
29 77 
29 85 
29 95 
29 99 
29 106 
29 113 
29 126 
29 127 
29 128 
29 141 
29 152 
29 155 
29 160 
29 169 
29 173 
29 183 
29 185 
30 31 
30 32 
30 33 
30 34 
30 35 
30 36 
30 37 
30 38 
30 39 
30 40 
30 41 
30 42 
30 44 
30 56 
30 58 
30 62 
30 72 
30 83 
30 86 
30 92 
30 99 
30 100 
30 114 
30 124 
30 128 
30 136 
30 142 
30 144 
30 156 
30 165 
30 170 
30 177 
30 184 
30 187 
31 32 
31 33 
31 34 
31 35 
31 36 
31 37 
31 38 
31 39 
31 40 
31 41 
31 42 
31 44 
31 45 
31 57 
31 59 
31 73 
31 82 
31 87 
31 91 
31 101 
31 107 
31 115 
31 116 
31 129 
31 139 
31 143 
31 151 
31 157 
31 162 
31 171 
31 178 
31 185 
31 188 
32 33 
32 34 
32 35 
32 36 
32 37 
32 38 
32 39 
32 40 
32 41 
32 42 
32 45 
32 46 
32 58 
32 60 
32 71 
32 74 
32 88 
32 90 
32 102 
32 111 
32 116 
32 122 
32 130 
32 137 
32 144 
32 148 
32 158 
32 163 
32 172 
32 180 
32 186 
32 189 
33 34 
33 35 
33 36 
33 37 
33 38 
33 39 
33 40 
33 41 
33 42 
33 43 
33 47 
33 61 
33 70 
33 75 
33 81 
33 88 
33 89 
33 100 
33 103 
33 117 
33 120 
33 131 
33 138 
33 145 
33 149 
33 159 
33 161 
33 173 
33 174 
33 187 
33 195 
34 35 
34 36 
34 37 
34 38 
34 39 
34 40 
34 41 
34 42 
34 48 
34 53 
34 59 
34 62 
34 72 
34 76 
34 85 
34 90 
34 104 
34 112 
34 118 
34 125 
34 132 
34 135 
34 146 
34 150 
34 159 
34 160 
34 172 
34 174 
34 188 
34 194 
35 36 
35 37 
35 38 
35 39 
35 40 
35 41 
35 42 
35 46 
35 49 
35 63 
35 64 
35 77 
35 79 
35 91 
35 97 
35 103 
35 105 
35 119 
35 123 
35 129 
35 133 
35 142 
35 147 
35 155 
35 161 
35 175 
35 182 
35 189 
35 192 
36 37 
36 38 
36 39 
36 40 
36 41 
36 42 
36 47 
36 50 
36 64 
36 68 
36 78 
36 84 
36 92 
36 94 
36 101 
36 106 
36 119 
36 120 
36 127 
36 134 
36 146 
36 148 
36 158 
36 162 
36 176 
36 181 
36 190 
36 191 
37 38 
37 39 
37 40 
37 41 
37 42 
37 50 
37 51 
37 63 
37 65 
37 79 
37 80 
37 89 
37 93 
37 102 
37 107 
37 115 
37 121 
37 132 
37 135 
37 149 
37 153 
37 163 
37 168 
37 169 
37 177 
37 191 
37 193 
38 39 
38 40 
38 41 
38 42 
38 52 
38 55 
38 61 
38 66 
38 74 
38 80 
38 87 
38 94 
38 108 
38 109 
38 114 
38 122 
38 133 
38 136 
38 150 
38 154 
38 164 
38 166 
38 176 
38 178 
38 183 
38 192 
39 40 
39 41 
39 42 
39 53 
39 54 
39 66 
39 67 
39 78 
39 81 
39 93 
39 95 
39 104 
39 109 
39 117 
39 123 
39 130 
39 137 
39 147 
39 151 
39 157 
39 165 
39 170 
39 179 
39 193 
39 196 
40 41 
40 42 
40 52 
40 54 
40 67 
40 68 
40 76 
40 82 
40 96 
40 98 
40 105 
40 110 
40 121 
40 124 
40 131 
40 138 
40 141 
40 152 
40 156 
40 166 
40 171 
40 180 
40 186 
40 194 
41 42 
41 48 
41 55 
41 60 
41 69 
41 73 
41 83 
41 86 
41 97 
41 110 
41 111 
41 113 
41 125 
41 139 
41 140 
41 145 
41 153 
41 164 
41 167 
41 175 
41 181 
41 190 
41 195 
42 49 
42 56 
42 65 
42 70 
42 75 
42 84 
42 96 
42 98 
42 108 
42 112 
42 118 
42 126 
42 134 
42 140 
42 143 
42 154 
42 167 
42 168 
42 179 
42 182 
42 184 
42 196 
43 44 
43 45 
43 46 
43 47 
43 48 
43 49 
43 50 
43 51 
43 52 
43 53 
43 54 
43 55 
43 56 
43 57 
43 70 
43 71 
43 81 
43 85 
43 88 
43 99 
43 100 
43 113 
43 120 
43 127 
43 138 
43 141 
43 149 
43 155 
43 161 
43 169 
43 174 
43 183 
43 195 
44 45 
44 46 
44 47 
44 48 
44 49 
44 50 
44 51 
44 52 
44 53 
44 54 
44 55 
44 56 
44 57 
44 58 
44 72 
44 82 
44 86 
44 91 
44 100 
44 107 
44 114 
44 116 
44 128 
44 139 
44 142 
44 151 
44 156 
44 162 
44 170 
44 178 
44 184 
44 188 
45 46 
45 47 
45 48 
45 49 
45 50 
45 51 
45 52 
45 53 
45 54 
45 55 
45 56 
45 58 
45 59 
45 71 
45 73 
45 87 
45 90 
45 101 
45 111 
45 115 
45 122 
45 129 
45 137 
45 143 
45 148 
45 157 
45 163 
45 171 
45 180 
45 185 
45 189 
46 47 
46 48 
46 49 
46 50 
46 51 
46 52 
46 53 
46 54 
46 55 
46 56 
46 60 
46 64 
46 74 
46 79 
46 88 
46 97 
46 102 
46 103 
46 116 
46 123 
46 129 
46 130 
46 142 
46 144 
46 155 
46 158 
46 172 
46 182 
46 186 
46 192 
47 48 
47 49 
47 50 
47 51 
47 52 
47 53 
47 54 
47 55 
47 56 
47 61 
47 68 
47 75 
47 84 
47 89 
47 94 
47 101 
47 103 
47 117 
47 119 
47 127 
47 131 
47 145 
47 146 
47 158 
47 159 
47 173 
47 181 
47 187 
47 191 
48 49 
48 50 
48 51 
48 52 
48 53 
48 54 
48 55 
48 56 
48 60 
48 62 
48 73 
48 76 
48 86 
48 90 
48 104 
48 110 
48 113 
48 118 
48 132 
48 140 
48 145 
48 146 
48 160 
48 164 
48 174 
48 175 
48 188 
48 190 
49 50 
49 51 
49 52 
49 53 
49 54 
49 55 
49 56 
49 63 
49 65 
49 75 
49 77 
49 91 
49 96 
49 105 
49 108 
49 118 
49 119 
49 133 
49 134 
49 143 
49 147 
49 161 
49 167 
49 175 
49 179 
49 184 
49 189 
50 51 
50 52 
50 53 
50 54 
50 55 
50 56 
50 63 
50 64 
50 78 
50 80 
50 89 
50 92 
50 102 
50 106 
50 115 
50 120 
50 132 
50 134 
50 148 
50 153 
50 162 
50 168 
50 169 
50 176 
50 190 
50 193 
51 52 
51 53 
51 54 
51 55 
51 56 
51 65 
51 69 
51 77 
51 79 
51 93 
51 95 
51 106 
51 107 
51 121 
51 126 
51 128 
51 135 
51 149 
51 152 
51 160 
51 163 
51 173 
51 177 
51 185 
51 191 
52 53 
52 54 
52 55 
52 56 
52 66 
52 67 
52 76 
52 80 
52 94 
52 98 
52 105 
52 108 
52 121 
52 122 
52 131 
52 136 
52 141 
52 150 
52 156 
52 164 
52 171 
52 178 
52 186 
52 192 
53 54 
53 55 
53 56 
53 59 
53 67 
53 72 
53 81 
53 85 
53 95 
53 109 
53 112 
53 123 
53 125 
53 135 
53 137 
53 150 
53 151 
53 159 
53 165 
53 172 
53 179 
53 193 
53 194 
54 55 
54 56 
54 66 
54 68 
54 78 
54 82 
54 93 
54 96 
54 104 
54 110 
54 117 
54 124 
54 130 
54 138 
54 147 
54 152 
54 157 
54 166 
54 170 
54 180 
54 194 
54 196 
55 56 
55 61 
55 69 
55 74 
55 83 
55 87 
55 97 
55 109 
55 111 
55 114 
55 125 
55 133 
55 139 
55 153 
55 154 
55 166 
55 167 
55 176 
55 181 
55 183 
55 195 
56 62 
56 70 
56 83 
56 84 
56 92 
56 98 
56 99 
56 112 
56 124 
56 126 
56 136 
56 140 
56 144 
56 154 
56 165 
56 168 
56 177 
56 182 
56 187 
56 196 
57 58 
57 59 
57 60 
57 61 
57 62 
57 63 
57 64 
57 65 
57 66 
57 67 
57 68 
57 69 
57 70 
57 71 
57 82 
57 85 
57 91 
57 99 
57 107 
57 113 
57 116 
57 127 
57 139 
57 141 
57 151 
57 155 
57 162 
57 169 
57 178 
57 183 
57 188 
58 59 
58 60 
58 61 
58 62 
58 63 
58 64 
58 65 
58 66 
58 67 
58 68 
58 69 
58 70 
58 71 
58 72 
58 86 
58 90 
58 100 
58 111 
58 114 
58 122 
58 128 
58 137 
58 142 
58 148 
58 156 
58 163 
58 170 
58 180 
58 184 
58 189 
59 60 
59 61 
59 62 
59 63 
59 64 
59 65 
59 66 
59 67 
59 68 
59 69 
59 70 
59 72 
59 73 
59 85 
59 87 
59 101 
59 112 
59 115 
59 125 
59 129 
59 135 
59 143 
59 150 
59 157 
59 159 
59 171 
59 172 
59 185 
59 194 
60 61 
60 62 
60 63 
60 64 
60 65 
60 66 
60 67 
60 68 
60 69 
60 70 
60 73 
60 74 
60 86 
60 88 
60 102 
60 110 
60 113 
60 116 
60 130 
60 140 
60 144 
60 145 
60 158 
60 164 
60 172 
60 175 
60 186 
60 190 
61 62 
61 63 
61 64 
61 65 
61 66 
61 67 
61 68 
61 69 
61 70 
61 74 
61 75 
61 87 
61 89 
61 103 
61 109 
61 114 
61 117 
61 131 
61 133 
61 145 
61 154 
61 159 
61 166 
61 173 
61 176 
61 183 
61 187 
62 63 
62 64 
62 65 
62 66 
62 67 
62 68 
62 69 
62 70 
62 76 
62 83 
62 90 
62 92 
62 99 
62 104 
62 118 
62 124 
62 132 
62 136 
62 144 
62 146 
62 160 
62 165 
62 174 
62 177 
62 187 
62 188 
63 64 
63 65 
63 66 
63 67 
63 68 
63 69 
63 70 
63 77 
63 80 
63 89 
63 91 
63 102 
63 105 
63 115 
63 119 
63 132 
63 133 
63 147 
63 153 
63 161 
63 168 
63 169 
63 175 
63 189 
63 193 
64 65 
64 66 
64 67 
64 68 
64 69 
64 70 
64 78 
64 79 
64 92 
64 97 
64 103 
64 106 
64 120 
64 123 
64 129 
64 134 
64 142 
64 148 
64 155 
64 162 
64 176 
64 182 
64 190 
64 192 
65 66 
65 67 
65 68 
65 69 
65 70 
65 75 
65 79 
65 93 
65 96 
65 107 
65 108 
65 118 
65 121 
65 134 
65 135 
65 143 
65 149 
65 163 
65 167 
65 177 
65 179 
65 184 
65 191 
66 67 
66 68 
66 69 
66 70 
66 78 
66 80 
66 93 
66 94 
66 104 
66 108 
66 117 
66 122 
66 130 
66 136 
66 147 
66 150 
66 157 
66 164 
66 170 
66 178 
66 192 
66 196 
67 68 
67 69 
67 70 
67 76 
67 81 
67 95 
67 98 
67 105 
67 109 
67 121 
67 123 
67 131 
67 137 
67 141 
67 151 
67 156 
67 165 
67 171 
67 179 
67 186 
67 193 
68 69 
68 70 
68 82 
68 84 
68 94 
68 96 
68 101 
68 110 
68 119 
68 124 
68 127 
68 138 
68 146 
68 152 
68 158 
68 166 
68 180 
68 181 
68 191 
68 194 
69 70 
69 77 
69 83 
69 95 
69 97 
69 106 
69 111 
69 125 
69 126 
69 128 
69 139 
69 152 
69 153 
69 160 
69 167 
69 173 
69 181 
69 185 
69 195 
70 81 
70 84 
70 88 
70 98 
70 100 
70 112 
70 120 
70 126 
70 138 
70 140 
70 149 
70 154 
70 161 
70 168 
70 174 
70 182 
70 195 
70 196 
71 72 
71 73 
71 74 
71 75 
71 76 
71 77 
71 78 
71 79 
71 80 
71 81 
71 82 
71 83 
71 84 
71 85 
71 90 
71 99 
71 111 
71 113 
71 122 
71 127 
71 137 
71 141 
71 148 
71 155 
71 163 
71 169 
71 180 
71 183 
71 189 
72 73 
72 74 
72 75 
72 76 
72 77 
72 78 
72 79 
72 80 
72 81 
72 82 
72 83 
72 84 
72 85 
72 86 
72 100 
72 112 
72 114 
72 125 
72 128 
72 135 
72 142 
72 150 
72 156 
72 159 
72 170 
72 172 
72 184 
72 194 
73 74 
73 75 
73 76 
73 77 
73 78 
73 79 
73 80 
73 81 
73 82 
73 83 
73 84 
73 86 
73 87 
73 101 
73 110 
73 113 
73 115 
73 129 
73 140 
73 143 
73 145 
73 157 
73 164 
73 171 
73 175 
73 185 
73 190 
74 75 
74 76 
74 77 
74 78 
74 79 
74 80 
74 81 
74 82 
74 83 
74 84 
74 87 
74 88 
74 102 
74 109 
74 114 
74 116 
74 130 
74 133 
74 144 
74 154 
74 158 
74 166 
74 172 
74 176 
74 183 
74 186 
75 76 
75 77 
75 78 
75 79 
75 80 
75 81 
75 82 
75 83 
75 84 
75 89 
75 96 
75 103 
75 108 
75 117 
75 118 
75 131 
75 134 
75 143 
75 145 
75 159 
75 167 
75 173 
75 179 
75 184 
75 187 
76 77 
76 78 
76 79 
76 80 
76 81 
76 82 
76 83 
76 84 
76 90 
76 98 
76 104 
76 105 
76 118 
76 121 
76 131 
76 132 
76 141 
76 146 
76 156 
76 160 
76 171 
76 174 
76 186 
76 188 
77 78 
77 79 
77 80 
77 81 
77 82 
77 83 
77 84 
77 91 
77 95 
77 105 
77 106 
77 119 
77 126 
77 128 
77 133 
77 147 
77 152 
77 160 
77 161 
77 173 
77 175 
77 185 
77 189 
78 79 
78 80 
78 81 
78 82 
78 83 
78 84 
78 92 
78 93 
78 104 
78 106 
78 117 
78 120 
78 130 
78 134 
78 147 
78 148 
78 157 
78 162 
78 170 
78 176 
78 190 
78 196 
79 80 
79 81 
79 82 
79 83 
79 84 
79 93 
79 97 
79 103 
79 107 
79 121 
79 123 
79 129 
79 135 
79 142 
79 149 
79 155 
79 163 
79 177 
79 182 
79 191 
79 192 
80 81 
80 82 
80 83 
80 84 
80 89 
80 94 
80 102 
80 108 
80 115 
80 122 
80 132 
80 136 
80 150 
80 153 
80 164 
80 168 
80 169 
80 178 
80 192 
80 193 
81 82 
81 83 
81 84 
81 88 
81 95 
81 100 
81 109 
81 120 
81 123 
81 137 
81 138 
81 149 
81 151 
81 161 
81 165 
81 174 
81 179 
81 193 
81 195 
82 83 
82 84 
82 91 
82 96 
82 107 
82 110 
82 116 
82 124 
82 138 
82 139 
82 151 
82 152 
82 162 
82 166 
82 178 
82 180 
82 188 
82 194 
83 84 
83 92 
83 97 
83 99 
83 111 
83 124 
83 125 
83 136 
83 139 
83 144 
83 153 
83 165 
83 167 
83 177 
83 181 
83 187 
83 195 
84 94 
84 98 
84 101 
84 112 
84 119 
84 126 
84 127 
84 140 
84 146 
84 154 
84 158 
84 168 
84 181 
84 182 
84 191 
84 196 
85 86 
85 87 
85 88 
85 89 
85 90 
85 91 
85 92 
85 93 
85 94 
85 95 
85 96 
85 97 
85 98 
85 99 
85 112 
85 113 
85 125 
85 127 
85 135 
85 141 
85 150 
85 155 
85 159 
85 169 
85 172 
85 183 
85 194 
86 87 
86 88 
86 89 
86 90 
86 91 
86 92 
86 93 
86 94 
86 95 
86 96 
86 97 
86 98 
86 100 
86 110 
86 113 
86 114 
86 128 
86 140 
86 142 
86 145 
86 156 
86 164 
86 170 
86 175 
86 184 
86 190 
87 88 
87 89 
87 90 
87 91 
87 92 
87 93 
87 94 
87 95 
87 96 
87 97 
87 98 
87 101 
87 109 
87 114 
87 115 
87 129 
87 133 
87 143 
87 154 
87 157 
87 166 
87 171 
87 176 
87 183 
87 185 
88 89 
88 90 
88 91 
88 92 
88 93 
88 94 
88 95 
88 96 
88 97 
88 98 
88 100 
88 102 
88 116 
88 120 
88 130 
88 138 
88 144 
88 149 
88 158 
88 161 
88 172 
88 174 
88 186 
88 195 
89 90 
89 91 
89 92 
89 93 
89 94 
89 95 
89 96 
89 97 
89 98 
89 102 
89 103 
89 115 
89 117 
89 131 
89 132 
89 145 
89 153 
89 159 
89 168 
89 169 
89 173 
89 187 
89 193 
90 91 
90 92 
90 93 
90 94 
90 95 
90 96 
90 97 
90 98 
90 104 
90 111 
90 118 
90 122 
90 132 
90 137 
90 146 
90 148 
90 160 
90 163 
90 174 
90 180 
90 188 
90 189 
91 92 
91 93 
91 94 
91 95 
91 96 
91 97 
91 98 
91 105 
91 107 
91 116 
91 119 
91 133 
91 139 
91 147 
91 151 
91 161 
91 162 
91 175 
91 178 
91 188 
91 189 
92 93 
92 94 
92 95 
92 96 
92 97 
92 98 
92 99 
92 106 
92 120 
92 124 
92 134 
92 136 
92 144 
92 148 
92 162 
92 165 
92 176 
92 177 
92 187 
92 190 
93 94 
93 95 
93 96 
93 97 
93 98 
93 104 
93 107 
93 117 
93 121 
93 130 
93 135 
93 147 
93 149 
93 157 
93 163 
93 170 
93 177 
93 191 
93 196 
94 95 
94 96 
94 97 
94 98 
94 101 
94 108 
94 119 
94 122 
94 127 
94 136 
94 146 
94 150 
94 158 
94 164 
94 178 
94 181 
94 191 
94 192 
95 96 
95 97 
95 98 
95 106 
95 109 
95 123 
95 126 
95 128 
95 137 
95 151 
95 152 
95 160 
95 165 
95 173 
95 179 
95 185 
95 193 
96 97 
96 98 
96 108 
96 110 
96 118 
96 124 
96 134 
96 138 
96 143 
96 152 
96 166 
96 167 
96 179 
96 180 
96 184 
96 194 
97 98 
97 103 
97 111 
97 123 
97 125 
97 129 
97 139 
97 142 
97 153 
97 155 
97 167 
97 181 
97 182 
97 192 
97 195 
98 105 
98 112 
98 121 
98 126 
98 131 
98 140 
98 141 
98 154 
98 156 
98 168 
98 171 
98 182 
98 186 
98 196 
99 100 
99 101 
99 102 
99 103 
99 104 
99 105 
99 106 
99 107 
99 108 
99 109 
99 110 
99 111 
99 112 
99 113 
99 124 
99 127 
99 136 
99 141 
99 144 
99 155 
99 165 
99 169 
99 177 
99 183 
99 187 
100 101 
100 102 
100 103 
100 104 
100 105 
100 106 
100 107 
100 108 
100 109 
100 110 
100 111 
100 112 
100 114 
100 120 
100 128 
100 138 
100 142 
100 149 
100 156 
100 161 
100 170 
100 174 
100 184 
100 195 
101 102 
101 103 
101 104 
101 105 
101 106 
101 107 
101 108 
101 109 
101 110 
101 111 
101 112 
101 115 
101 119 
101 127 
101 129 
101 143 
101 146 
101 157 
101 158 
101 171 
101 181 
101 185 
101 191 
102 103 
102 104 
102 105 
102 106 
102 107 
102 108 
102 109 
102 110 
102 111 
102 112 
102 115 
102 116 
102 130 
102 132 
102 144 
102 153 
102 158 
102 168 
102 169 
102 172 
102 186 
102 193 
103 104 
103 105 
103 106 
103 107 
103 108 
103 109 
103 110 
103 111 
103 112 
103 117 
103 123 
103 129 
103 131 
103 142 
103 145 
103 155 
103 159 
103 173 
103 182 
103 187 
103 192 
104 105 
104 106 
104 107 
104 108 
104 109 
104 110 
104 111 
104 112 
104 117 
104 118 
104 130 
104 132 
104 146 
104 147 
104 157 
104 160 
104 170 
104 174 
104 188 
104 196 
105 106 
105 107 
105 108 
105 109 
105 110 
105 111 
105 112 
105 119 
105 121 
105 131 
105 133 
105 141 
105 147 
105 156 
105 161 
105 171 
105 175 
105 186 
105 189 
106 107 
106 108 
106 109 
106 110 
106 111 
106 112 
106 120 
106 126 
106 128 
106 134 
106 148 
106 152 
106 160 
106 162 
106 173 
106 176 
106 185 
106 190 
107 108 
107 109 
107 110 
107 111 
107 112 
107 116 
107 121 
107 135 
107 139 
107 149 
107 151 
107 162 
107 163 
107 177 
107 178 
107 188 
107 191 
108 109 
108 110 
108 111 
108 112 
108 118 
108 122 
108 134 
108 136 
108 143 
108 150 
108 164 
108 167 
108 178 
108 179 
108 184 
108 192 
109 110 
109 111 
109 112 
109 114 
109 123 
109 133 
109 137 
109 151 
109 154 
109 165 
109 166 
109 176 
109 179 
109 183 
109 193 
110 111 
110 112 
110 113 
110 124 
110 138 
110 140 
110 145 
110 152 
110 164 
110 166 
110 175 
110 180 
110 190 
110 194 
111 112 
111 122 
111 125 
111 137 
111 139 
111 148 
111 153 
111 163 
111 167 
111 180 
111 181 
111 189 
111 195 
112 125 
112 126 
112 135 
112 140 
112 150 
112 154 
112 159 
112 168 
112 172 
112 182 
112 194 
112 196 
113 114 
113 115 
113 116 
113 117 
113 118 
113 119 
113 120 
113 121 
113 122 
113 123 
113 124 
113 125 
113 126 
113 127 
113 140 
113 141 
113 145 
113 155 
113 164 
113 169 
113 175 
113 183 
113 190 
114 115 
114 116 
114 117 
114 118 
114 119 
114 120 
114 121 
114 122 
114 123 
114 124 
114 125 
114 126 
114 128 
114 133 
114 142 
114 154 
114 156 
114 166 
114 170 
114 176 
114 183 
114 184 
115 116 
115 117 
115 118 
115 119 
115 120 
115 121 
115 122 
115 123 
115 124 
115 125 
115 126 
115 129 
115 132 
115 143 
115 153 
115 157 
115 168 
115 169 
115 171 
115 185 
115 193 
116 117 
116 118 
116 119 
116 120 
116 121 
116 122 
116 123 
116 124 
116 125 
116 126 
116 130 
116 139 
116 144 
116 151 
116 158 
116 162 
116 172 
116 178 
116 186 
116 188 
117 118 
117 119 
117 120 
117 121 
117 122 
117 123 
117 124 
117 125 
117 126 
117 130 
117 131 
117 145 
117 147 
117 157 
117 159 
117 170 
117 173 
117 187 
117 196 
118 119 
118 120 
118 121 
118 122 
118 123 
118 124 
118 125 
118 126 
118 132 
118 134 
118 143 
118 146 
118 160 
118 167 
118 174 
118 179 
118 184 
118 188 
119 120 
119 121 
119 122 
119 123 
119 124 
119 125 
119 126 
119 127 
119 133 
119 146 
119 147 
119 158 
119 161 
119 175 
119 181 
119 189 
119 191 
120 121 
120 122 
120 123 
120 124 
120 125 
120 126 
120 134 
120 138 
120 148 
120 149 
120 161 
120 162 
120 174 
120 176 
120 190 
120 195 
121 122 
121 123 
121 124 
121 125 
121 126 
121 131 
121 135 
121 141 
121 149 
121 156 
121 163 
121 171 
121 177 
121 186 
121 191 
122 123 
122 124 
122 125 
122 126 
122 136 
122 137 
122 148 
122 150 
122 163 
122 164 
122 178 
122 180 
122 189 
122 192 
123 124 
123 125 
123 126 
123 129 
123 137 
123 142 
123 151 
123 155 
123 165 
123 179 
123 182 
123 192 
123 193 
124 125 
124 126 
124 136 
124 138 
124 144 
124 152 
124 165 
124 166 
124 177 
124 180 
124 187 
124 194 
125 126 
125 135 
125 139 
125 150 
125 153 
125 159 
125 167 
125 172 
125 181 
125 194 
125 195 
126 128 
126 140 
126 152 
126 154 
126 160 
126 168 
126 173 
126 182 
126 185 
126 196 
127 128 
127 129 
127 130 
127 131 
127 132 
127 133 
127 134 
127 135 
127 136 
127 137 
127 138 
127 139 
127 140 
127 141 
127 146 
127 155 
127 158 
127 169 
127 181 
127 183 
127 191 
128 129 
128 130 
128 131 
128 132 
128 133 
128 134 
128 135 
128 136 
128 137 
128 138 
128 139 
128 140 
128 142 
128 152 
128 156 
128 160 
128 170 
128 173 
128 184 
128 185 
129 130 
129 131 
129 132 
129 133 
129 134 
129 135 
129 136 
129 137 
129 138 
129 139 
129 140 
129 142 
129 143 
129 155 
129 157 
129 171 
129 182 
129 185 
129 192 
130 131 
130 132 
130 133 
130 134 
130 135 
130 136 
130 137 
130 138 
130 139 
130 140 
130 144 
130 147 
130 157 
130 158 
130 170 
130 172 
130 186 
130 196 
131 132 
131 133 
131 134 
131 135 
131 136 
131 137 
131 138 
131 139 
131 140 
131 141 
131 145 
131 156 
131 159 
131 171 
131 173 
131 186 
131 187 
132 133 
132 134 
132 135 
132 136 
132 137 
132 138 
132 139 
132 140 
132 146 
132 153 
132 160 
132 168 
132 169 
132 174 
132 188 
132 193 
133 134 
133 135 
133 136 
133 137 
133 138 
133 139 
133 140 
133 147 
133 154 
133 161 
133 166 
133 175 
133 176 
133 183 
133 189 
134 135 
134 136 
134 137 
134 138 
134 139 
134 140 
134 143 
134 148 
134 162 
134 167 
134 176 
134 179 
134 184 
134 190 
135 136 
135 137 
135 138 
135 139 
135 140 
135 149 
135 150 
135 159 
135 163 
135 172 
135 177 
135 191 
135 194 
136 137 
136 138 
136 139 
136 140 
136 144 
136 150 
136 164 
136 165 
136 177 
136 178 
136 187 
136 192 
137 138 
137 139 
137 140 
137 148 
137 151 
137 163 
137 165 
137 179 
137 180 
137 189 
137 193 
138 139 
138 140 
138 149 
138 152 
138 161 
138 166 
138 174 
138 180 
138 194 
138 195 
139 140 
139 151 
139 153 
139 162 
139 167 
139 178 
139 181 
139 188 
139 195 
140 145 
140 154 
140 164 
140 168 
140 175 
140 182 
140 190 
140 196 
141 142 
141 143 
141 144 
141 145 
141 146 
141 147 
141 148 
141 149 
141 150 
141 151 
141 152 
141 153 
141 154 
141 155 
141 156 
141 169 
141 171 
141 183 
141 186 
142 143 
142 144 
142 145 
142 146 
142 147 
142 148 
142 149 
142 150 
142 151 
142 152 
142 153 
142 154 
142 155 
142 156 
142 170 
142 182 
142 184 
142 192 
143 144 
143 145 
143 146 
143 147 
143 148 
143 149 
143 150 
143 151 
143 152 
143 153 
143 154 
143 157 
143 167 
143 171 
143 179 
143 184 
143 185 
144 145 
144 146 
144 147 
144 148 
144 149 
144 150 
144 151 
144 152 
144 153 
144 154 
144 158 
144 165 
144 172 
144 177 
144 186 
144 187 
145 146 
145 147 
145 148 
145 149 
145 150 
145 151 
145 152 
145 153 
145 154 
145 159 
145 164 
145 173 
145 175 
145 187 
145 190 
146 147 
146 148 
146 149 
146 150 
146 151 
146 152 
146 153 
146 154 
146 158 
146 160 
146 174 
146 181 
146 188 
146 191 
147 148 
147 149 
147 150 
147 151 
147 152 
147 153 
147 154 
147 157 
147 161 
147 170 
147 175 
147 189 
147 196 
148 149 
148 150 
148 151 
148 152 
148 153 
148 154 
148 162 
148 163 
148 176 
148 180 
148 189 
148 190 
149 150 
149 151 
149 152 
149 153 
149 154 
149 161 
149 163 
149 174 
149 177 
149 191 
149 195 
150 151 
150 152 
150 153 
150 154 
150 159 
150 164 
150 172 
150 178 
150 192 
150 194 
151 152 
151 153 
151 154 
151 162 
151 165 
151 178 
151 179 
151 188 
151 193 
152 153 
152 154 
152 160 
152 166 
152 173 
152 180 
152 185 
152 194 
153 154 
153 167 
153 168 
153 169 
153 181 
153 193 
153 195 
154 166 
154 168 
154 176 
154 182 
154 183 
154 196 
155 156 
155 157 
155 158 
155 159 
155 160 
155 161 
155 162 
155 163 
155 164 
155 165 
155 166 
155 167 
155 168 
155 169 
155 182 
155 183 
155 192 
156 157 
156 158 
156 159 
156 160 
156 161 
156 162 
156 163 
156 164 
156 165 
156 166 
156 167 
156 168 
156 170 
156 171 
156 184 
156 186 
157 158 
157 159 
157 160 
157 161 
157 162 
157 163 
157 164 
157 165 
157 166 
157 167 
157 168 
157 170 
157 171 
157 185 
157 196 
158 159 
158 160 
158 161 
158 162 
158 163 
158 164 
158 165 
158 166 
158 167 
158 168 
158 172 
158 181 
158 186 
158 191 
159 160 
159 161 
159 162 
159 163 
159 164 
159 165 
159 166 
159 167 
159 168 
159 172 
159 173 
159 187 
159 194 
160 161 
160 162 
160 163 
160 164 
160 165 
160 166 
160 167 
160 168 
160 173 
160 174 
160 185 
160 188 
161 162 
161 163 
161 164 
161 165 
161 166 
161 167 
161 168 
161 174 
161 175 
161 189 
161 195 
162 163 
162 164 
162 165 
162 166 
162 167 
162 168 
162 176 
162 178 
162 188 
162 190 
163 164 
163 165 
163 166 
163 167 
163 168 
163 177 
163 180 
163 189 
163 191 
164 165 
164 166 
164 167 
164 168 
164 175 
164 178 
164 190 
164 192 
165 166 
165 167 
165 168 
165 177 
165 179 
165 187 
165 193 
166 167 
166 168 
166 176 
166 180 
166 183 
166 194 
167 168 
167 179 
167 181 
167 184 
167 195 
168 169 
168 182 
168 193 
168 196 
169 170 
169 171 
169 172 
169 173 
169 174 
169 175 
169 176 
169 177 
169 178 
169 179 
169 180 
169 181 
169 182 
169 183 
169 193 
170 171 
170 172 
170 173 
170 174 
170 175 
170 176 
170 177 
170 178 
170 179 
170 180 
170 181 
170 182 
170 184 
170 196 
171 172 
171 173 
171 174 
171 175 
171 176 
171 177 
171 178 
171 179 
171 180 
171 181 
171 182 
171 185 
171 186 
172 173 
172 174 
172 175 
172 176 
172 177 
172 178 
172 179 
172 180 
172 181 
172 182 
172 186 
172 194 
173 174 
173 175 
173 176 
173 177 
173 178 
173 179 
173 180 
173 181 
173 182 
173 185 
173 187 
174 175 
174 176 
174 177 
174 178 
174 179 
174 180 
174 181 
174 182 
174 188 
174 195 
175 176 
175 177 
175 178 
175 179 
175 180 
175 181 
175 182 
175 189 
175 190 
176 177 
176 178 
176 179 
176 180 
176 181 
176 182 
176 183 
176 190 
177 178 
177 179 
177 180 
177 181 
177 182 
177 187 
177 191 
178 179 
178 180 
178 181 
178 182 
178 188 
178 192 
179 180 
179 181 
179 182 
179 184 
179 193 
180 181 
180 182 
180 189 
180 194 
181 182 
181 191 
181 195 
182 192 
182 196 
183 184 
183 185 
183 186 
183 187 
183 188 
183 189 
183 190 
183 191 
183 192 
183 193 
183 194 
183 195 
183 196 
184 185 
184 186 
184 187 
184 188 
184 189 
184 190 
184 191 
184 192 
184 193 
184 194 
184 195 
184 196 
185 186 
185 187 
185 188 
185 189 
185 190 
185 191 
185 192 
185 193 
185 194 
185 195 
185 196 
186 187 
186 188 
186 189 
186 190 
186 191 
186 192 
186 193 
186 194 
186 195 
186 196 
187 188 
187 189 
187 190 
187 191 
187 192 
187 193 
187 194 
187 195 
187 196 
188 189 
188 190 
188 191 
188 192 
188 193 
188 194 
188 195 
188 196 
189 190 
189 191 
189 192 
189 193 
189 194 
189 195 
189 196 
190 191 
190 192 
190 193 
190 194 
190 195 
190 196 
191 192 
191 193 
191 194 
191 195 
191 196 
192 193 
192 194 
192 195 
192 196 
193 194 
193 195 
193 196 
194 195 
194 196 
195 196 
